# Option line (n p)
81 3
# Headers
bool1 bool2
1 0
1 0
0 1
1 0
1 0
1 0
1 0
1 0
1 0
1 0
1 0
0 1
0 1
0 1
0 1
0 1
1 0
1 0
1 0
1 0
1 0
0 1
0 1
1 0
0 1
0 1
1 0
1 0
1 0
0 1
1 0
1 0
1 0
1 0
1 0
1 0
0 1
1 0
0 1
1 0
0 1
0 1
1 0
0 1
1 0
1 0
1 0
1 0
1 0
1 0
1 0
1 0
1 0
1 0
0 1
0 1
0 1
1 0
1 0
1 0
1 0
1 0
1 0
1 0
1 0
1 0
1 0
1 0
1 0
1 0
1 0
1 0
1 0
1 0
1 0
1 0
1 0
1 0
1 0
1 0
1 0
